(set-info :smt-lib-version 2.6)
(set-logic QF_NIA)
(set-info :source |
Generated by: Cristina Borralleras, Daniel Larraz, Albert Oliveras, Enric Rodriguez-Carbonell, Albert Rubio
Generated on: 2017-04-27
Generator: VeryMax
Application: Termination proving
Target solver: barcelogic
|)
(set-info :license "https://creativecommons.org/licenses/by/4.0/")
(set-info :category "industrial")
(set-info :status sat)
(declare-fun Nl1x_5^01 () Int)
(declare-fun Nl1y_6^01 () Int)
(declare-fun Nl1x_5^02 () Int)
(declare-fun Nl1y_6^02 () Int)
(declare-fun Nl1x_5^03 () Int)
(declare-fun Nl1y_6^03 () Int)
(declare-fun lam0n0 () Int)
(declare-fun lam0n1 () Int)
(declare-fun lam0n2 () Int)
(declare-fun lam0n3 () Int)
(declare-fun lam0n5 () Int)
(declare-fun lam0n6 () Int)
(declare-fun lam0n7 () Int)
(declare-fun lam0n8 () Int)
(declare-fun UndefCntr0_CT () Int)
(declare-fun Nl1CT1 () Int)
(declare-fun Nl1CT2 () Int)
(declare-fun Nl1CT3 () Int)
(declare-fun UndefCntr0_x_5^0 () Int)
(declare-fun UndefCntr0_y_6^0 () Int)
(declare-fun lam0n4 () Int)
(declare-fun UndefCntr0_undef6 () Int)
(declare-fun lam1n0 () Int)
(declare-fun lam1n1 () Int)
(declare-fun lam1n2 () Int)
(declare-fun lam1n3 () Int)
(declare-fun lam1n5 () Int)
(declare-fun lam1n6 () Int)
(declare-fun lam1n7 () Int)
(declare-fun lam1n8 () Int)
(declare-fun lam1n4 () Int)
(declare-fun lam2n0 () Int)
(declare-fun lam2n1 () Int)
(declare-fun lam2n2 () Int)
(declare-fun lam2n3 () Int)
(declare-fun lam2n5 () Int)
(declare-fun lam2n6 () Int)
(declare-fun lam2n7 () Int)
(declare-fun lam2n8 () Int)
(declare-fun lam2n4 () Int)
(declare-fun lam3n0 () Int)
(declare-fun lam3n1 () Int)
(declare-fun lam3n2 () Int)
(declare-fun lam3n3 () Int)
(declare-fun lam3n5 () Int)
(declare-fun lam3n6 () Int)
(declare-fun lam3n7 () Int)
(declare-fun lam3n8 () Int)
(declare-fun lam3n4 () Int)
(declare-fun x_5^0 () Int)
(declare-fun y_6^0 () Int)
(declare-fun FV_x_5^0_1 () Int)
(declare-fun FV_y_6^0_1 () Int)
(declare-fun FV_undef6_0 () Int)
(declare-fun FV_x_5^0_0 () Int)
(declare-fun FV_y_6^0_0 () Int)
(declare-fun lam7n0 () Int)
(declare-fun lam7n1 () Int)
(declare-fun lam7n2 () Int)
(declare-fun lam7n3 () Int)
(declare-fun lam7n4 () Int)
(declare-fun lam7n5 () Int)
(declare-fun lam7n6 () Int)
(declare-fun FV_x_5^0_2 () Int)
(declare-fun FV_y_6^0_2 () Int)
(declare-fun FV_undef6_2 () Int)
(assert ( and ( <= ( - 1 ) Nl1x_5^01 ) ( <= Nl1x_5^01 1 ) ( <= ( - 1 ) Nl1y_6^01 ) ( <= Nl1y_6^01 1 ) ( <= ( - 1 ) Nl1x_5^02 ) ( <= Nl1x_5^02 1 ) ( <= ( - 1 ) Nl1y_6^02 ) ( <= Nl1y_6^02 1 ) ( <= ( - 1 ) Nl1x_5^03 ) ( <= Nl1x_5^03 1 ) ( <= ( - 1 ) Nl1y_6^03 ) ( <= Nl1y_6^03 1 ) ))
(assert ( or ( and ( >= lam0n0 0 ) ( >= lam0n1 0 ) ( >= lam0n2 0 ) ( >= lam0n3 0 ) ( >= lam0n5 0 ) ( >= lam0n6 0 ) ( >= lam0n7 0 ) ( >= lam0n8 0 ) ( > ( + ( * 1 lam0n0 ) ( * 1 lam0n1 ) ( * 50001 lam0n2 ) ( * 50001 lam0n3 ) ( * UndefCntr0_CT lam0n5 ) ( * Nl1CT1 lam0n6 ) ( * Nl1CT2 lam0n7 ) ( * Nl1CT3 lam0n8 ) ( - 1 ) ) 0 ) ( = ( + ( * 1 lam0n0 ) ( * 1 lam0n1 ) ( * ( - 1 ) lam0n2 ) ( * UndefCntr0_x_5^0 lam0n5 ) ( * Nl1x_5^01 lam0n6 ) ( * Nl1x_5^02 lam0n7 ) ( * Nl1x_5^03 lam0n8 ) ) 0 ) ( = ( + ( * ( - 1 ) lam0n1 ) ( * ( - 1 ) lam0n2 ) ( * ( - 1 ) lam0n3 ) ( * UndefCntr0_y_6^0 lam0n5 ) ( * Nl1y_6^01 lam0n6 ) ( * Nl1y_6^02 lam0n7 ) ( * Nl1y_6^03 lam0n8 ) ) 0 ) ( = ( + ( * 1 lam0n4 ) ( * UndefCntr0_undef6 lam0n5 ) ) 0 ) ) ( and ( >= lam1n0 0 ) ( >= lam1n1 0 ) ( >= lam1n2 0 ) ( >= lam1n3 0 ) ( >= lam1n5 0 ) ( >= lam1n6 0 ) ( >= lam1n7 0 ) ( >= lam1n8 0 ) ( > ( + ( * 1 lam1n0 ) ( * 1 lam1n1 ) ( * 50001 lam1n2 ) ( * 50001 lam1n3 ) ( * UndefCntr0_CT lam1n5 ) ( * Nl1CT1 lam1n6 ) ( * Nl1CT2 lam1n7 ) ( * Nl1CT3 lam1n8 ) ( - 1 ( + Nl1CT1 ( * Nl1y_6^01 1 ) ) ) ) 0 ) ( = ( + ( * 1 lam1n0 ) ( * 1 lam1n1 ) ( * ( - 1 ) lam1n2 ) ( * UndefCntr0_x_5^0 lam1n5 ) ( * Nl1x_5^01 lam1n6 ) ( * Nl1x_5^02 lam1n7 ) ( * Nl1x_5^03 lam1n8 ) ( - ( + 0 Nl1x_5^01 ) ) ) 0 ) ( = ( + ( * ( - 1 ) lam1n1 ) ( * ( - 1 ) lam1n2 ) ( * ( - 1 ) lam1n3 ) ( * UndefCntr0_y_6^0 lam1n5 ) ( * Nl1y_6^01 lam1n6 ) ( * Nl1y_6^02 lam1n7 ) ( * Nl1y_6^03 lam1n8 ) ( - ( + 0 ( * Nl1y_6^01 1 ) ) ) ) 0 ) ( = ( + ( * 1 lam1n4 ) ( * UndefCntr0_undef6 lam1n5 ) ) 0 ) ) ))
(assert ( or ( and ( >= lam0n0 0 ) ( >= lam0n1 0 ) ( >= lam0n2 0 ) ( >= lam0n3 0 ) ( >= lam0n5 0 ) ( >= lam0n6 0 ) ( >= lam0n7 0 ) ( >= lam0n8 0 ) ( > ( + ( * 1 lam0n0 ) ( * 1 lam0n1 ) ( * 50001 lam0n2 ) ( * 50001 lam0n3 ) ( * UndefCntr0_CT lam0n5 ) ( * Nl1CT1 lam0n6 ) ( * Nl1CT2 lam0n7 ) ( * Nl1CT3 lam0n8 ) ( - 1 ) ) 0 ) ( = ( + ( * 1 lam0n0 ) ( * 1 lam0n1 ) ( * ( - 1 ) lam0n2 ) ( * UndefCntr0_x_5^0 lam0n5 ) ( * Nl1x_5^01 lam0n6 ) ( * Nl1x_5^02 lam0n7 ) ( * Nl1x_5^03 lam0n8 ) ) 0 ) ( = ( + ( * ( - 1 ) lam0n1 ) ( * ( - 1 ) lam0n2 ) ( * ( - 1 ) lam0n3 ) ( * UndefCntr0_y_6^0 lam0n5 ) ( * Nl1y_6^01 lam0n6 ) ( * Nl1y_6^02 lam0n7 ) ( * Nl1y_6^03 lam0n8 ) ) 0 ) ( = ( + ( * 1 lam0n4 ) ( * UndefCntr0_undef6 lam0n5 ) ) 0 ) ) ( and ( >= lam2n0 0 ) ( >= lam2n1 0 ) ( >= lam2n2 0 ) ( >= lam2n3 0 ) ( >= lam2n5 0 ) ( >= lam2n6 0 ) ( >= lam2n7 0 ) ( >= lam2n8 0 ) ( > ( + ( * 1 lam2n0 ) ( * 1 lam2n1 ) ( * 50001 lam2n2 ) ( * 50001 lam2n3 ) ( * UndefCntr0_CT lam2n5 ) ( * Nl1CT1 lam2n6 ) ( * Nl1CT2 lam2n7 ) ( * Nl1CT3 lam2n8 ) ( - 1 ( + Nl1CT2 ( * Nl1y_6^02 1 ) ) ) ) 0 ) ( = ( + ( * 1 lam2n0 ) ( * 1 lam2n1 ) ( * ( - 1 ) lam2n2 ) ( * UndefCntr0_x_5^0 lam2n5 ) ( * Nl1x_5^01 lam2n6 ) ( * Nl1x_5^02 lam2n7 ) ( * Nl1x_5^03 lam2n8 ) ( - ( + 0 Nl1x_5^02 ) ) ) 0 ) ( = ( + ( * ( - 1 ) lam2n1 ) ( * ( - 1 ) lam2n2 ) ( * ( - 1 ) lam2n3 ) ( * UndefCntr0_y_6^0 lam2n5 ) ( * Nl1y_6^01 lam2n6 ) ( * Nl1y_6^02 lam2n7 ) ( * Nl1y_6^03 lam2n8 ) ( - ( + 0 ( * Nl1y_6^02 1 ) ) ) ) 0 ) ( = ( + ( * 1 lam2n4 ) ( * UndefCntr0_undef6 lam2n5 ) ) 0 ) ) ))
(assert ( or ( and ( >= lam0n0 0 ) ( >= lam0n1 0 ) ( >= lam0n2 0 ) ( >= lam0n3 0 ) ( >= lam0n5 0 ) ( >= lam0n6 0 ) ( >= lam0n7 0 ) ( >= lam0n8 0 ) ( > ( + ( * 1 lam0n0 ) ( * 1 lam0n1 ) ( * 50001 lam0n2 ) ( * 50001 lam0n3 ) ( * UndefCntr0_CT lam0n5 ) ( * Nl1CT1 lam0n6 ) ( * Nl1CT2 lam0n7 ) ( * Nl1CT3 lam0n8 ) ( - 1 ) ) 0 ) ( = ( + ( * 1 lam0n0 ) ( * 1 lam0n1 ) ( * ( - 1 ) lam0n2 ) ( * UndefCntr0_x_5^0 lam0n5 ) ( * Nl1x_5^01 lam0n6 ) ( * Nl1x_5^02 lam0n7 ) ( * Nl1x_5^03 lam0n8 ) ) 0 ) ( = ( + ( * ( - 1 ) lam0n1 ) ( * ( - 1 ) lam0n2 ) ( * ( - 1 ) lam0n3 ) ( * UndefCntr0_y_6^0 lam0n5 ) ( * Nl1y_6^01 lam0n6 ) ( * Nl1y_6^02 lam0n7 ) ( * Nl1y_6^03 lam0n8 ) ) 0 ) ( = ( + ( * 1 lam0n4 ) ( * UndefCntr0_undef6 lam0n5 ) ) 0 ) ) ( and ( >= lam3n0 0 ) ( >= lam3n1 0 ) ( >= lam3n2 0 ) ( >= lam3n3 0 ) ( >= lam3n5 0 ) ( >= lam3n6 0 ) ( >= lam3n7 0 ) ( >= lam3n8 0 ) ( > ( + ( * 1 lam3n0 ) ( * 1 lam3n1 ) ( * 50001 lam3n2 ) ( * 50001 lam3n3 ) ( * UndefCntr0_CT lam3n5 ) ( * Nl1CT1 lam3n6 ) ( * Nl1CT2 lam3n7 ) ( * Nl1CT3 lam3n8 ) ( - 1 ( + Nl1CT3 ( * Nl1y_6^03 1 ) ) ) ) 0 ) ( = ( + ( * 1 lam3n0 ) ( * 1 lam3n1 ) ( * ( - 1 ) lam3n2 ) ( * UndefCntr0_x_5^0 lam3n5 ) ( * Nl1x_5^01 lam3n6 ) ( * Nl1x_5^02 lam3n7 ) ( * Nl1x_5^03 lam3n8 ) ( - ( + 0 Nl1x_5^03 ) ) ) 0 ) ( = ( + ( * ( - 1 ) lam3n1 ) ( * ( - 1 ) lam3n2 ) ( * ( - 1 ) lam3n3 ) ( * UndefCntr0_y_6^0 lam3n5 ) ( * Nl1y_6^01 lam3n6 ) ( * Nl1y_6^02 lam3n7 ) ( * Nl1y_6^03 lam3n8 ) ( - ( + 0 ( * Nl1y_6^03 1 ) ) ) ) 0 ) ( = ( + ( * 1 lam3n4 ) ( * UndefCntr0_undef6 lam3n5 ) ) 0 ) ) ))
(assert ( and ( <= ( + Nl1CT1 ( * Nl1x_5^01 FV_x_5^0_1 ) ( * Nl1y_6^01 FV_y_6^0_1 ) ) 0 ) ( <= ( + Nl1CT2 ( * Nl1x_5^02 FV_x_5^0_1 ) ( * Nl1y_6^02 FV_y_6^0_1 ) ) 0 ) ( <= ( + Nl1CT3 ( * Nl1x_5^03 FV_x_5^0_1 ) ( * Nl1y_6^03 FV_y_6^0_1 ) ) 0 ) ( <= ( + 1 FV_x_5^0_1 ) 0 ) ( <= ( + ( * ( - 1 ) FV_x_5^0_1 ) ( * ( - 1 ) FV_y_6^0_1 ) ) 0 ) ))
(assert ( or ( not ( = UndefCntr0_x_5^0 0 ) ) ( not ( = UndefCntr0_y_6^0 0 ) ) ( not ( = UndefCntr0_undef6 0 ) ) ( = UndefCntr0_CT 0 ) ))
(assert ( or ( and ( = UndefCntr0_x_5^0 0 ) ( = UndefCntr0_y_6^0 0 ) ) ( not ( = UndefCntr0_undef6 0 ) ) ))
(assert ( or ( = UndefCntr0_undef6 0 ) ( and ( and ( = UndefCntr0_x_5^0 0 ) ( = UndefCntr0_y_6^0 0 ) ) ( or ( and ( = FV_undef6_0 0 ) ( <= ( + UndefCntr0_CT ( * UndefCntr0_undef6 FV_undef6_0 ) ( * UndefCntr0_x_5^0 FV_x_5^0_0 ) ( * UndefCntr0_y_6^0 FV_y_6^0_0 ) ) 0 ) ) ( and ( = FV_undef6_0 0 ) ( <= ( + UndefCntr0_CT ( * UndefCntr0_undef6 FV_undef6_0 ) ( * UndefCntr0_x_5^0 FV_x_5^0_0 ) ( * UndefCntr0_y_6^0 FV_y_6^0_0 ) ) 0 ) ) ) ) ))
(assert ( and ( >= lam7n0 0 ) ( >= lam7n1 0 ) ( >= lam7n2 0 ) ( >= lam7n3 0 ) ( >= lam7n4 0 ) ( >= lam7n5 0 ) ( >= lam7n6 0 ) ( > ( + ( * 1 lam7n1 ) ( * 1 lam7n2 ) ( * ( - 50000 ) lam7n3 ) ( * Nl1CT1 lam7n4 ) ( * Nl1CT2 lam7n5 ) ( * Nl1CT3 lam7n6 ) ( - 1 ) ) 0 ) ( = ( + ( * ( - 1 ) lam7n0 ) ( * 1 lam7n1 ) ( * 1 lam7n2 ) ( * 1 lam7n3 ) ( * Nl1x_5^01 lam7n4 ) ( * Nl1x_5^02 lam7n5 ) ( * Nl1x_5^03 lam7n6 ) ) 0 ) ( = ( + ( * ( - 1 ) lam7n0 ) ( * ( - 1 ) lam7n2 ) ( * 1 lam7n3 ) ( * Nl1y_6^01 lam7n4 ) ( * Nl1y_6^02 lam7n5 ) ( * Nl1y_6^03 lam7n6 ) ) 0 ) ))
(assert ( and ( and ( <= ( + Nl1CT1 ( * Nl1x_5^01 FV_x_5^0_2 ) ( * Nl1y_6^01 FV_y_6^0_2 ) ) 0 ) ( <= ( + Nl1CT2 ( * Nl1x_5^02 FV_x_5^0_2 ) ( * Nl1y_6^02 FV_y_6^0_2 ) ) 0 ) ( <= ( + Nl1CT3 ( * Nl1x_5^03 FV_x_5^0_2 ) ( * Nl1y_6^03 FV_y_6^0_2 ) ) 0 ) ) ( and ( <= ( + 1 FV_x_5^0_2 ) 0 ) ( <= ( + 1 FV_x_5^0_2 ( * ( - 1 ) FV_y_6^0_2 ) ) 0 ) ( <= ( + 50001 ( * ( - 1 ) FV_x_5^0_2 ) ( * ( - 1 ) FV_y_6^0_2 ) ) 0 ) ( <= ( + 50001 ( * ( - 1 ) FV_y_6^0_2 ) ) 0 ) ( = FV_undef6_2 0 ) ) ))
(check-sat)
(exit)
